Route #1: 17 3 44 32 40 12
Route #2: 39 31 25 55 18 50 9
Route #3: 58 10 38 11
Route #4: 35 14 59 53 7 26
Route #5: 4 45 29 27 52 34
Route #6: 46 8 19 54 13 57 15 5
Route #7: 21 47 36 60 20 37 48
Route #8: 30 28 61 22 62 2
Route #9: 1 43 42 64 41 56 23
Route #10: 51 16 24 49 63 33 6
Cost 821